Reading model...
...model read.
creating competitive generators file...
...competitive generators recorded.
Loading data...
.. real-time data read.
Compiling instance...
...instance created.
Creating Offer Mitigation (model will solve as dispatch if TRUE)...
...storage offer mitigation file created
Converting model to MPEC...
...converted
NOTE: initial MIP solve with only storage competitive to get feasible solution
Solving...

Welcome to IBM(R) ILOG(R) CPLEX(R) Interactive Optimizer 12.10.0.0
  with Simplex, Mixed Integer & Barrier Optimizers
5725-A06 5725-A29 5724-Y48 5724-Y49 5724-Y54 5724-Y55 5655-Y21
Copyright IBM Corp. 1988, 2019.  All Rights Reserved.

Type 'help' for a list of available commands.
Type 'help' followed by a command name for more
information on commands.

CPLEX> Logfile 'cplex.log' closed.
Logfile 'C:\Users\wenmi\Desktop\competitiveMPEC\logs\tmpgcvm41km.cplex.log' open.
CPLEX> New value for parallel optimization mode: -1
CPLEX> New value for mixed integer optimality gap tolerance: 0.001
CPLEX> New value for deterministic time limit in ticks: 100000
CPLEX> Problem 'C:\Users\wenmi\Desktop\competitiveMPEC\logs\tmp_ev7jub2.pyomo.lp' read.
Read time = 0.31 sec. (27.40 ticks)
CPLEX> Problem name         : C:\Users\wenmi\Desktop\competitiveMPEC\logs\tmp_ev7jub2.pyomo.lp
Objective sense      : Maximize
Variables            :  107779  [Nneg: 1,  Box: 44054,  Free: 8928,
                                 Binary: 54796]
Objective nonzeros   :   17521
Linear constraints   :  246995  [Less: 82866,  Greater: 118424,  Equal: 45705]
  Nonzeros           :  580828
  RHS nonzeros       :  134590

Variables            : Min LB: -5000.000        Max UB: 1000000.       
Objective nonzeros   : Min   : 0.008333333      Max   : 2500.000       
Linear constraints   :
  Nonzeros           : Min   : 0.008333333      Max   : 1000000.       
  RHS nonzeros       : Min   : 0.008333333      Max   : 1000000.       
CPLEX> Version identifier: 12.10.0.0 | 2019-11-26 | 843d4de2ae
CPXPARAM_Parallel                                -1
CPXPARAM_DetTimeLimit                            100000
CPXPARAM_MIP_Tolerances_MIPGap                   0.001
Tried aggregator 3 times.
MIP Presolve eliminated 181791 rows and 41511 columns.
MIP Presolve added 6047 rows and 0 columns.
MIP Presolve modified 48842 coefficients.
Aggregator did 25822 substitutions.
Reduced MIP has 45429 rows, 38814 columns, and 125906 nonzeros.
Reduced MIP has 15264 binaries, 0 generals, 0 SOSs, and 0 indicators.
Presolve time = 0.33 sec. (328.45 ticks)
Probing fixed 759 vars, tightened 6981 bounds.
Probing time = 0.09 sec. (14.38 ticks)
Tried aggregator 2 times.
Detecting symmetries...
MIP Presolve eliminated 1712 rows and 1520 columns.
MIP Presolve modified 5511 coefficients.
Aggregator did 62 substitutions.
Reduced MIP has 43655 rows, 37232 columns, and 120776 nonzeros.
Reduced MIP has 14504 binaries, 0 generals, 0 SOSs, and 0 indicators.
Presolve time = 0.14 sec. (206.57 ticks)
Probing fixed 1 vars, tightened 254 bounds.
Probing time = 0.16 sec. (21.55 ticks)
Clique table members: 81586.
MIP emphasis: balance optimality and feasibility.
MIP search method: dynamic search.
Parallel mode: opportunistic, using up to 16 threads.
Root relaxation solution time = 0.63 sec. (1739.98 ticks)

        Nodes                                         Cuts/
   Node  Left     Objective  IInf  Best Integer    Best Bound    ItCnt     Gap

      0     0        0.0000   346                      0.0000    11014         
*     0+    0                            0.0000        0.0000             0.00%

Root node processing (before b&c):
  Real time             =    1.70 sec. (2744.47 ticks)
Parallel b&c, 16 threads:
  Real time             =    0.00 sec. (0.00 ticks)
  Sync time (average)   =    0.00 sec.
  Wait time (average)   =    0.00 sec.
                          ------------
Total (root+branch&cut) =    1.70 sec. (2744.47 ticks)

Solution pool: 1 solution saved.

MIP - Integer optimal, tolerance (0.001/1e-06):  Objective =  3.5940956877e-09
Current MIP best bound =  4.1445247234e-09 (gap = 5.50429e-10, 0.00%)
Solution time =    1.70 sec.  Iterations = 11014  Nodes = 0 (1)
Deterministic time = 2744.77 ticks  (1611.73 ticks/sec)

CPLEX> Incumbent solution written to file 'C:\Users\wenmi\Desktop\competitiveMPEC\logs\tmpz6_h05do.cplex.sol'.
CPLEX> NOTE: no warmstart specified for MIP iteration, default behavior is true
NOTE: resolving with all competitive generators using storage-only solution to warmstart
Solving...

Welcome to IBM(R) ILOG(R) CPLEX(R) Interactive Optimizer 12.10.0.0
  with Simplex, Mixed Integer & Barrier Optimizers
5725-A06 5725-A29 5724-Y48 5724-Y49 5724-Y54 5724-Y55 5655-Y21
Copyright IBM Corp. 1988, 2019.  All Rights Reserved.

Type 'help' for a list of available commands.
Type 'help' followed by a command name for more
information on commands.

CPLEX> Logfile 'cplex.log' closed.
Logfile 'C:\Users\wenmi\Desktop\competitiveMPEC\logs\tmp6o4aqrjj.cplex.log' open.
CPLEX> New value for parallel optimization mode: -1
CPLEX> New value for mixed integer optimality gap tolerance: 0.001
CPLEX> New value for deterministic time limit in ticks: 100000
CPLEX> Problem 'C:\Users\wenmi\Desktop\competitiveMPEC\logs\tmpxrufz198.pyomo.lp' read.
Read time = 0.31 sec. (27.45 ticks)
CPLEX> MIP start file 'C:\Users\wenmi\Desktop\competitiveMPEC\logs\tmpfe1391q7.cplex.mst' read.
CPLEX> Problem name         : C:\Users\wenmi\Desktop\competitiveMPEC\logs\tmpxrufz198.pyomo.lp
Objective sense      : Maximize
Variables            :  109219  [Nneg: 1,  Box: 45494,  Free: 8928,
                                 Binary: 54796]
Objective nonzeros   :   18913
Linear constraints   :  246995  [Less: 82866,  Greater: 118424,  Equal: 45705]
  Nonzeros           :  580828
  RHS nonzeros       :  134590

Variables            : Min LB: -5000.000        Max UB: 1000000.       
Objective nonzeros   : Min   : 0.008333333      Max   : 2500.000       
Linear constraints   :
  Nonzeros           : Min   : 0.008333333      Max   : 1000000.       
  RHS nonzeros       : Min   : 0.008333333      Max   : 1000000.       
CPLEX> Version identifier: 12.10.0.0 | 2019-11-26 | 843d4de2ae
CPXPARAM_Parallel                                -1
CPXPARAM_DetTimeLimit                            100000
CPXPARAM_MIP_Tolerances_MIPGap                   0.001
Warning:  No solution found from 1 MIP starts.
Retaining values of one MIP start for possible repair.
Tried aggregator 3 times.
MIP Presolve eliminated 181791 rows and 42951 columns.
MIP Presolve added 6047 rows and 0 columns.
MIP Presolve modified 48842 coefficients.
Aggregator did 25822 substitutions.
Reduced MIP has 45429 rows, 38814 columns, and 125906 nonzeros.
Reduced MIP has 15264 binaries, 0 generals, 0 SOSs, and 0 indicators.
Presolve time = 0.33 sec. (329.17 ticks)
Probing fixed 759 vars, tightened 6981 bounds.
Probing time = 0.08 sec. (14.38 ticks)
Tried aggregator 2 times.
Detecting symmetries...
MIP Presolve eliminated 1712 rows and 1520 columns.
MIP Presolve modified 5511 coefficients.
Aggregator did 62 substitutions.
Reduced MIP has 43655 rows, 37232 columns, and 120776 nonzeros.
Reduced MIP has 14504 binaries, 0 generals, 0 SOSs, and 0 indicators.
Presolve time = 0.14 sec. (206.57 ticks)
Probing fixed 1 vars, tightened 254 bounds.
Probing time = 0.17 sec. (21.55 ticks)
Clique table members: 81586.
MIP emphasis: balance optimality and feasibility.
MIP search method: dynamic search.
Parallel mode: opportunistic, using up to 16 threads.
Root relaxation solution time = 0.58 sec. (1782.29 ticks)

        Nodes                                         Cuts/
   Node  Left     Objective  IInf  Best Integer    Best Bound    ItCnt     Gap

      0     0    19758.6158   378                  19758.6158     9748         
      0     0    19758.6158   378               Flowcuts: 124     9775         
      0     0    19758.6158   378                   Cuts: 110     9803         
*     0+    0                        19723.1637    19758.6158             0.18%
      0     0    19758.6158   378    19723.1637      Cuts: 89     9827    0.18%
      0     0    19758.6158   378    19723.1637      Cuts: 73     9846    0.18%
Repair heuristic found nothing.
      0     2    19758.6158    70    19723.1637    19758.6158     9846    0.18%
Elapsed time = 6.31 sec. (5611.17 ticks, tree = 0.02 MB, solutions = 1)
    169    31    19730.3921    67    19723.1637    19756.3132     9972    0.17%
    299   260    19738.2776    35    19723.1637    19754.1828    11549    0.16%
    449   238    19746.4412    53    19723.1637    19754.1828    11343    0.16%
*   564   276      integral     0    19730.8744    19754.1828    11647    0.12%
*   678   517      integral     0    19730.8744    19754.1828    13459    0.12%
    870   494    19738.3393     4    19733.2010    19754.1828    13225    0.11%
*   878   393      integral     0    19736.1677    19754.1828    12542    0.09%
*   907   568      integral     0    19736.1677    19754.1828    13944    0.09%

Cover cuts applied:  4
Implied bound cuts applied:  18
Flow cuts applied:  168
Mixed integer rounding cuts applied:  1

Root node processing (before b&c):
  Real time             =    4.70 sec. (5494.79 ticks)
Parallel b&c, 16 threads:
  Real time             =    6.09 sec. (1662.63 ticks)
  Sync time (average)   =    0.33 sec.
  Wait time (average)   =    0.00 sec.
                          ------------
Total (root+branch&cut) =   10.80 sec. (7157.42 ticks)

Solution pool: 11 solutions saved.

MIP - Integer optimal, tolerance (0.001/1e-06):  Objective =  1.9736167655e+04
Current MIP best bound =  1.9754182829e+04 (gap = 18.0152, 0.09%)
Solution time =   10.80 sec.  Iterations = 14949  Nodes = 952 (611)
Deterministic time = 7157.73 ticks  (662.94 ticks/sec)

CPLEX> Incumbent solution written to file 'C:\Users\wenmi\Desktop\competitiveMPEC\logs\tmpm66wktdj.cplex.sol'.
CPLEX> Exporting results... 
